13468
0 0 0 0 1 1 0 1 1 1 1 1 0 1 0 0 0 0 1 0 1 1 1 0 0 0 0 1 0 0
10 10 21 11 11 8 13 18 7 13 8 13 8 11 9 8 27 8 7 5 21 27 8 7 9 10 20 8 5 27 4 13 11 9 4 21 27 27 21 5 4 13 18 21 21 10 20 8 5 7 22 13 8 7 13 21 18 8 7 5 22 13 8 7 9 11 13 20 9 4 8 22 18 10 4 22 7 8 5 7 4 13 10 10 4 10 27 8 11 11 4 13 8 9 4 20 13 8 7 5 4 13 20 10 4 22 8 8 8 9 10 20 8 5 7 22 8 8 7 5 22 7 8 5 9 22 20 8 7 9 22 13 8 7 7 22 27 8 7 5 8 13 18 18 21 22 20 8 8 11